NAME : single
TYPE : ATSP
DIMENSION : 7
EDGE_WEIGHT_TYPE : EXPLICIT
EDGE_WEIGHT_FORMAT : FULL_MATRIX
EDGE_WEIGHT_SECTION
0 281 2484 2438 1322 2306 1237 
199928 0 2766 2719 1604 2587 1518 
199503 2766 0 46 2937 178 2851 
199512 2719 46 0 2890 132 2805 
199735 1604 2937 2890 0 2758 431 
199538 2587 178 132 2758 0 2672 
199752 1518 2851 2805 431 2672 0 
EOF